unsat
(:eliminated-vars              1
 :max-memory                   18.15
 :memory                       18.05
 :nlsat-conflicts              4
 :nlsat-irrational-assignments 1
 :nlsat-propagations           19
 :nlsat-stages                 4
 :num-allocs                   45005
 :rlimit-count                 12078
 :time                         0.01
 :total-time                   0.02)
